(declare-const term_to_project_onto2 Real)
(declare-const term_to_project_onto0 Real)
(declare-const term_to_project_onto4 Real)
(declare-const term_to_project_onto Real)
(declare-const term_to_project_onto1 Real)
(declare-const tmp___2 Int)
(declare-const tmp___0 Int)
(declare-const term_to_project_onto3 Real)
(assert (exists
         ((|tmp___2'?1| Int) (|tmp___1'?2| Int) (|tmp___0'?3| Int)
            (|tmp'?4| Int) (|n'?5| Int) (|m'?6| Int) (phi_n?7 Int)
            (phi_n?8 Int) (havoc?9 Int) (phi_tmp___1?10 Int) (phi_n?11 Int)
            (havoc?12 Int) (phi_m?13 Int) (phi_m?14 Int) (havoc?15 Int)
            (phi_tmp?16 Int) (phi_m?17 Int) (havoc?18 Int) (tmp___1?19 Int)
            (tmp?20 Int) (n?21 Int) (m?22 Int))
         (and (<= (- n?21) 0) (<= (- m?22) 0) (<= (+ m?22 -60) 0)
                (<= (+ n?21 -60) 0)
                (or (and (= havoc?18 0) (= (+ (- phi_m?17) m?22) 0)
                           (= (+ (- phi_tmp?16) tmp?20) 0))
                      (and (or (<= (+ havoc?18 1) 0)
                                 (<= (+ (- havoc?18) 1) 0))
                             (or (and (= havoc?15 0)
                                        (= (+ (- phi_m?14) m?22) 0))
                                   (and (or (<= (+ havoc?15 1) 0)
                                              (<= (+ (- havoc?15) 1) 0))
                                          (or (and (<= (+ m?22 -59) 0)
                                                     (= (+ (- phi_m?13) m?22
                                                             1) 0))
                                                (and (<= (+ (- m?22) 60) 0)
                                                       (= (+ m?22 -60) 0)
                                                       (= (- phi_m?13) 0)))
                                          (= (+ phi_m?13 (- phi_m?14)) 0)))
                             (= (+ phi_m?14 (- phi_m?17)) 0)
                             (= (+ havoc?15 (- phi_tmp?16)) 0)))
                (or (and (= havoc?12 0) (= (+ (- phi_n?11) n?21) 0)
                           (= (+ (- phi_tmp___1?10) tmp___1?19) 0))
                      (and (or (<= (+ havoc?12 1) 0)
                                 (<= (+ (- havoc?12) 1) 0))
                             (or (and (= havoc?9 0)
                                        (= (+ (- phi_n?8) n?21) 0))
                                   (and (or (<= (+ havoc?9 1) 0)
                                              (<= (+ (- havoc?9) 1) 0))
                                          (or (and (<= (+ n?21 -59) 0)
                                                     (= (+ (- phi_n?7) n?21 1) 0))
                                                (and (<= (+ (- n?21) 60) 0)
                                                       (= (+ n?21 -60) 0)
                                                       (= (- phi_n?7) 0)))
                                          (= (+ phi_n?7 (- phi_n?8)) 0)))
                             (= (+ phi_n?8 (- phi_n?11)) 0)
                             (= (+ havoc?9 (- phi_tmp___1?10)) 0)))
                (= (+ |tmp___2'?1| (- havoc?12)) 0)
                (= (+ |tmp___1'?2| (- phi_tmp___1?10)) 0)
                (= (+ |tmp___0'?3| (- havoc?18)) 0)
                (= (+ |tmp'?4| (- phi_tmp?16)) 0)
                (= (+ |n'?5| (- phi_n?11)) 0) (= (+ |m'?6| (- phi_m?17)) 0)
                (= term_to_project_onto4 (+ |m'?6| (- m?22)))
                (= term_to_project_onto3 (+ |n'?5| (- n?21)))
                (= term_to_project_onto2 (+ |tmp'?4| (- tmp?20)))
                (= term_to_project_onto1 (+ |tmp___0'?3| (- tmp___0)))
                (= term_to_project_onto0 (+ |tmp___1'?2| (- tmp___1?19)))
                (= term_to_project_onto (+ |tmp___2'?1| (- tmp___2))))))
(check-sat)
